c Created with the Wolfram Language : www.wolfram.com
c 
p edge 70 235
e 5 6
e 1 8
e 7 10
e 9 12
e 10 13
e 4 14
e 6 14
e 12 14
e 12 15
e 9 17
e 10 17
e 11 18
e 16 18
e 2 19
e 5 19
e 4 20
e 14 20
e 8 21
e 8 22
e 14 22
e 4 23
e 21 23
e 10 24
e 18 24
e 3 25
e 23 25
e 9 26
e 6 27
e 19 27
e 1 28
e 7 28
e 12 28
e 19 29
e 24 29
e 26 29
e 11 30
e 16 30
e 23 30
e 24 30
e 3 31
e 25 31
e 28 31
e 4 32
e 8 32
e 10 32
e 21 32
e 27 32
e 7 33
e 9 33
e 13 33
e 27 33
e 5 34
e 7 34
e 11 34
e 17 34
e 4 35
e 5 35
e 7 35
e 9 35
e 10 35
e 29 36
e 5 37
e 24 37
e 28 37
e 8 38
e 2 39
e 3 39
e 4 39
e 13 39
e 35 39
e 31 40
e 39 40
e 20 41
e 18 42
e 33 42
e 15 43
e 24 43
e 28 43
e 32 43
e 33 43
e 2 44
e 18 44
e 37 44
e 4 45
e 22 45
e 28 45
e 32 45
e 6 46
e 8 46
e 18 46
e 24 46
e 37 46
e 40 46
e 45 46
e 3 47
e 9 47
e 10 47
e 14 47
e 23 47
e 26 47
e 33 47
e 15 48
e 22 48
e 43 48
e 12 49
e 20 49
e 40 49
e 28 50
e 32 50
e 38 50
e 39 50
e 40 50
e 41 50
e 46 50
e 47 50
e 48 50
e 5 51
e 31 51
e 41 51
e 44 51
e 46 51
e 48 51
e 5 52
e 22 52
e 9 53
e 20 53
e 28 53
e 31 53
e 48 53
e 52 53
e 10 54
e 33 54
e 40 54
e 41 54
e 53 54
e 12 55
e 29 55
e 36 55
e 40 55
e 14 56
e 24 56
e 26 56
e 29 56
e 39 56
e 44 56
e 46 56
e 12 57
e 21 57
e 26 57
e 35 57
e 47 57
e 51 57
e 6 58
e 7 58
e 39 58
e 40 58
e 44 58
e 50 58
e 55 58
e 56 58
e 10 59
e 19 59
e 8 60
e 19 60
e 20 60
e 25 60
e 29 60
e 39 60
e 43 60
e 58 60
e 14 61
e 24 61
e 31 61
e 51 61
e 54 61
e 2 62
e 33 62
e 48 62
e 49 62
e 56 62
e 2 63
e 12 63
e 18 63
e 20 63
e 22 63
e 35 63
e 37 63
e 51 63
e 10 64
e 11 64
e 26 64
e 28 64
e 41 64
e 48 64
e 5 65
e 13 65
e 25 65
e 36 65
e 38 65
e 39 65
e 64 65
e 2 66
e 3 66
e 17 66
e 23 66
e 29 66
e 32 66
e 39 66
e 40 66
e 52 66
e 23 67
e 27 67
e 32 67
e 36 67
e 38 67
e 31 68
e 35 68
e 36 68
e 50 68
e 52 68
e 63 68
e 8 69
e 13 69
e 52 69
e 58 69
e 60 69
e 10 70
e 19 70
e 23 70
e 28 70
e 48 70
e 52 70
e 54 70
e 63 70
e 65 70
